computational_data/lp/ER_n40_p035_s3.lp
Minimize
 obj: r_0 + r_1 + r_2 + r_3 + r_4 + r_5 + r_6 + r_7 + r_8 + r_9 + r_10 + r_11 + r_12 + r_13 + r_14 + r_15 + r_16 + r_17 + r_18 + r_19 + r_20 + r_21 + r_22 + r_23 + r_24 + r_25 + r_26 + r_27 + r_28 + r_29 + r_30 + r_31 + r_32 + r_33 + r_34 + r_35 + r_36 + r_37 + r_38 + r_39 + b_0 + b_1 + b_2 + b_3 + b_4 + b_5 + b_6 + b_7 + b_8 + b_9 + b_10 + b_11 + b_12 + b_13 + b_14 + b_15 + b_16 + b_17 + b_18 + b_19 + b_20 + b_21 + b_22 + b_23 + b_24 + b_25 + b_26 + b_27 + b_28 + b_29 + b_30 + b_31 + b_32 + b_33 + b_34 + b_35 + b_36 + b_37 + b_38 + b_39
Subject To
 red_nonempty: r_0 + r_1 + r_2 + r_3 + r_4 + r_5 + r_6 + r_7 + r_8 + r_9 + r_10 + r_11 + r_12 + r_13 + r_14 + r_15 + r_16 + r_17 + r_18 + r_19 + r_20 + r_21 + r_22 + r_23 + r_24 + r_25 + r_26 + r_27 + r_28 + r_29 + r_30 + r_31 + r_32 + r_33 + r_34 + r_35 + r_36 + r_37 + r_38 + r_39 >= 1
 blue_nonempty: b_0 + b_1 + b_2 + b_3 + b_4 + b_5 + b_6 + b_7 + b_8 + b_9 + b_10 + b_11 + b_12 + b_13 + b_14 + b_15 + b_16 + b_17 + b_18 + b_19 + b_20 + b_21 + b_22 + b_23 + b_24 + b_25 + b_26 + b_27 + b_28 + b_29 + b_30 + b_31 + b_32 + b_33 + b_34 + b_35 + b_36 + b_37 + b_38 + b_39 >= 1
 disjoint_0: r_0 + b_0 <= 1
 disjoint_1: r_1 + b_1 <= 1
 disjoint_2: r_2 + b_2 <= 1
 disjoint_3: r_3 + b_3 <= 1
 disjoint_4: r_4 + b_4 <= 1
 disjoint_5: r_5 + b_5 <= 1
 disjoint_6: r_6 + b_6 <= 1
 disjoint_7: r_7 + b_7 <= 1
 disjoint_8: r_8 + b_8 <= 1
 disjoint_9: r_9 + b_9 <= 1
 disjoint_10: r_10 + b_10 <= 1
 disjoint_11: r_11 + b_11 <= 1
 disjoint_12: r_12 + b_12 <= 1
 disjoint_13: r_13 + b_13 <= 1
 disjoint_14: r_14 + b_14 <= 1
 disjoint_15: r_15 + b_15 <= 1
 disjoint_16: r_16 + b_16 <= 1
 disjoint_17: r_17 + b_17 <= 1
 disjoint_18: r_18 + b_18 <= 1
 disjoint_19: r_19 + b_19 <= 1
 disjoint_20: r_20 + b_20 <= 1
 disjoint_21: r_21 + b_21 <= 1
 disjoint_22: r_22 + b_22 <= 1
 disjoint_23: r_23 + b_23 <= 1
 disjoint_24: r_24 + b_24 <= 1
 disjoint_25: r_25 + b_25 <= 1
 disjoint_26: r_26 + b_26 <= 1
 disjoint_27: r_27 + b_27 <= 1
 disjoint_28: r_28 + b_28 <= 1
 disjoint_29: r_29 + b_29 <= 1
 disjoint_30: r_30 + b_30 <= 1
 disjoint_31: r_31 + b_31 <= 1
 disjoint_32: r_32 + b_32 <= 1
 disjoint_33: r_33 + b_33 <= 1
 disjoint_34: r_34 + b_34 <= 1
 disjoint_35: r_35 + b_35 <= 1
 disjoint_36: r_36 + b_36 <= 1
 disjoint_37: r_37 + b_37 <= 1
 disjoint_38: r_38 + b_38 <= 1
 disjoint_39: r_39 + b_39 <= 1
 red_ind_0: r_0 + r_1 <= 1
 blue_ind_0: b_0 + b_1 <= 1
 red_ind_1: r_0 + r_6 <= 1
 blue_ind_1: b_0 + b_6 <= 1
 red_ind_2: r_0 + r_7 <= 1
 blue_ind_2: b_0 + b_7 <= 1
 red_ind_3: r_0 + r_38 <= 1
 blue_ind_3: b_0 + b_38 <= 1
 red_ind_4: r_0 + r_9 <= 1
 blue_ind_4: b_0 + b_9 <= 1
 red_ind_5: r_0 + r_10 <= 1
 blue_ind_5: b_0 + b_10 <= 1
 red_ind_6: r_0 + r_39 <= 1
 blue_ind_6: b_0 + b_39 <= 1
 red_ind_7: r_0 + r_16 <= 1
 blue_ind_7: b_0 + b_16 <= 1
 red_ind_8: r_0 + r_22 <= 1
 blue_ind_8: b_0 + b_22 <= 1
 red_ind_9: r_0 + r_25 <= 1
 blue_ind_9: b_0 + b_25 <= 1
 red_ind_10: r_0 + r_26 <= 1
 blue_ind_10: b_0 + b_26 <= 1
 red_ind_11: r_1 + r_2 <= 1
 blue_ind_11: b_1 + b_2 <= 1
 red_ind_12: r_1 + r_34 <= 1
 blue_ind_12: b_1 + b_34 <= 1
 red_ind_13: r_1 + r_35 <= 1
 blue_ind_13: b_1 + b_35 <= 1
 red_ind_14: r_1 + r_6 <= 1
 blue_ind_14: b_1 + b_6 <= 1
 red_ind_15: r_1 + r_38 <= 1
 blue_ind_15: b_1 + b_38 <= 1
 red_ind_16: r_1 + r_18 <= 1
 blue_ind_16: b_1 + b_18 <= 1
 red_ind_17: r_1 + r_24 <= 1
 blue_ind_17: b_1 + b_24 <= 1
 red_ind_18: r_1 + r_27 <= 1
 blue_ind_18: b_1 + b_27 <= 1
 red_ind_19: r_1 + r_28 <= 1
 blue_ind_19: b_1 + b_28 <= 1
 red_ind_20: r_1 + r_31 <= 1
 blue_ind_20: b_1 + b_31 <= 1
 red_ind_21: r_2 + r_34 <= 1
 blue_ind_21: b_2 + b_34 <= 1
 red_ind_22: r_2 + r_3 <= 1
 blue_ind_22: b_2 + b_3 <= 1
 red_ind_23: r_2 + r_35 <= 1
 blue_ind_23: b_2 + b_35 <= 1
 red_ind_24: r_2 + r_5 <= 1
 blue_ind_24: b_2 + b_5 <= 1
 red_ind_25: r_2 + r_39 <= 1
 blue_ind_25: b_2 + b_39 <= 1
 red_ind_26: r_2 + r_10 <= 1
 blue_ind_26: b_2 + b_10 <= 1
 red_ind_27: r_2 + r_11 <= 1
 blue_ind_27: b_2 + b_11 <= 1
 red_ind_28: r_2 + r_13 <= 1
 blue_ind_28: b_2 + b_13 <= 1
 red_ind_29: r_2 + r_14 <= 1
 blue_ind_29: b_2 + b_14 <= 1
 red_ind_30: r_2 + r_17 <= 1
 blue_ind_30: b_2 + b_17 <= 1
 red_ind_31: r_2 + r_18 <= 1
 blue_ind_31: b_2 + b_18 <= 1
 red_ind_32: r_2 + r_20 <= 1
 blue_ind_32: b_2 + b_20 <= 1
 red_ind_33: r_3 + r_34 <= 1
 blue_ind_33: b_3 + b_34 <= 1
 red_ind_34: r_3 + r_35 <= 1
 blue_ind_34: b_3 + b_35 <= 1
 red_ind_35: r_3 + r_37 <= 1
 blue_ind_35: b_3 + b_37 <= 1
 red_ind_36: r_3 + r_6 <= 1
 blue_ind_36: b_3 + b_6 <= 1
 red_ind_37: r_3 + r_38 <= 1
 blue_ind_37: b_3 + b_38 <= 1
 red_ind_38: r_3 + r_9 <= 1
 blue_ind_38: b_3 + b_9 <= 1
 red_ind_39: r_3 + r_16 <= 1
 blue_ind_39: b_3 + b_16 <= 1
 red_ind_40: r_3 + r_17 <= 1
 blue_ind_40: b_3 + b_17 <= 1
 red_ind_41: r_3 + r_20 <= 1
 blue_ind_41: b_3 + b_20 <= 1
 red_ind_42: r_3 + r_23 <= 1
 blue_ind_42: b_3 + b_23 <= 1
 red_ind_43: r_3 + r_25 <= 1
 blue_ind_43: b_3 + b_25 <= 1
 red_ind_44: r_3 + r_28 <= 1
 blue_ind_44: b_3 + b_28 <= 1
 red_ind_45: r_3 + r_31 <= 1
 blue_ind_45: b_3 + b_31 <= 1
 red_ind_46: r_4 + r_6 <= 1
 blue_ind_46: b_4 + b_6 <= 1
 red_ind_47: r_4 + r_7 <= 1
 blue_ind_47: b_4 + b_7 <= 1
 red_ind_48: r_4 + r_8 <= 1
 blue_ind_48: b_4 + b_8 <= 1
 red_ind_49: r_4 + r_12 <= 1
 blue_ind_49: b_4 + b_12 <= 1
 red_ind_50: r_4 + r_13 <= 1
 blue_ind_50: b_4 + b_13 <= 1
 red_ind_51: r_4 + r_17 <= 1
 blue_ind_51: b_4 + b_17 <= 1
 red_ind_52: r_4 + r_18 <= 1
 blue_ind_52: b_4 + b_18 <= 1
 red_ind_53: r_4 + r_20 <= 1
 blue_ind_53: b_4 + b_20 <= 1
 red_ind_54: r_4 + r_23 <= 1
 blue_ind_54: b_4 + b_23 <= 1
 red_ind_55: r_4 + r_24 <= 1
 blue_ind_55: b_4 + b_24 <= 1
 red_ind_56: r_4 + r_28 <= 1
 blue_ind_56: b_4 + b_28 <= 1
 red_ind_57: r_4 + r_29 <= 1
 blue_ind_57: b_4 + b_29 <= 1
 red_ind_58: r_4 + r_30 <= 1
 blue_ind_58: b_4 + b_30 <= 1
 red_ind_59: r_4 + r_32 <= 1
 blue_ind_59: b_4 + b_32 <= 1
 red_ind_60: r_4 + r_33 <= 1
 blue_ind_60: b_4 + b_33 <= 1
 red_ind_61: r_4 + r_38 <= 1
 blue_ind_61: b_4 + b_38 <= 1
 red_ind_62: r_4 + r_39 <= 1
 blue_ind_62: b_4 + b_39 <= 1
 red_ind_63: r_5 + r_33 <= 1
 blue_ind_63: b_5 + b_33 <= 1
 red_ind_64: r_5 + r_34 <= 1
 blue_ind_64: b_5 + b_34 <= 1
 red_ind_65: r_5 + r_12 <= 1
 blue_ind_65: b_5 + b_12 <= 1
 red_ind_66: r_5 + r_17 <= 1
 blue_ind_66: b_5 + b_17 <= 1
 red_ind_67: r_5 + r_18 <= 1
 blue_ind_67: b_5 + b_18 <= 1
 red_ind_68: r_5 + r_19 <= 1
 blue_ind_68: b_5 + b_19 <= 1
 red_ind_69: r_5 + r_20 <= 1
 blue_ind_69: b_5 + b_20 <= 1
 red_ind_70: r_5 + r_22 <= 1
 blue_ind_70: b_5 + b_22 <= 1
 red_ind_71: r_5 + r_24 <= 1
 blue_ind_71: b_5 + b_24 <= 1
 red_ind_72: r_5 + r_31 <= 1
 blue_ind_72: b_5 + b_31 <= 1
 red_ind_73: r_6 + r_7 <= 1
 blue_ind_73: b_6 + b_7 <= 1
 red_ind_74: r_6 + r_8 <= 1
 blue_ind_74: b_6 + b_8 <= 1
 red_ind_75: r_6 + r_13 <= 1
 blue_ind_75: b_6 + b_13 <= 1
 red_ind_76: r_6 + r_16 <= 1
 blue_ind_76: b_6 + b_16 <= 1
 red_ind_77: r_6 + r_21 <= 1
 blue_ind_77: b_6 + b_21 <= 1
 red_ind_78: r_6 + r_24 <= 1
 blue_ind_78: b_6 + b_24 <= 1
 red_ind_79: r_6 + r_25 <= 1
 blue_ind_79: b_6 + b_25 <= 1
 red_ind_80: r_6 + r_26 <= 1
 blue_ind_80: b_6 + b_26 <= 1
 red_ind_81: r_6 + r_31 <= 1
 blue_ind_81: b_6 + b_31 <= 1
 red_ind_82: r_6 + r_32 <= 1
 blue_ind_82: b_6 + b_32 <= 1
 red_ind_83: r_6 + r_33 <= 1
 blue_ind_83: b_6 + b_33 <= 1
 red_ind_84: r_6 + r_34 <= 1
 blue_ind_84: b_6 + b_34 <= 1
 red_ind_85: r_6 + r_35 <= 1
 blue_ind_85: b_6 + b_35 <= 1
 red_ind_86: r_6 + r_38 <= 1
 blue_ind_86: b_6 + b_38 <= 1
 red_ind_87: r_7 + r_35 <= 1
 blue_ind_87: b_7 + b_35 <= 1
 red_ind_88: r_7 + r_38 <= 1
 blue_ind_88: b_7 + b_38 <= 1
 red_ind_89: r_7 + r_8 <= 1
 blue_ind_89: b_7 + b_8 <= 1
 red_ind_90: r_7 + r_9 <= 1
 blue_ind_90: b_7 + b_9 <= 1
 red_ind_91: r_7 + r_14 <= 1
 blue_ind_91: b_7 + b_14 <= 1
 red_ind_92: r_7 + r_15 <= 1
 blue_ind_92: b_7 + b_15 <= 1
 red_ind_93: r_7 + r_16 <= 1
 blue_ind_93: b_7 + b_16 <= 1
 red_ind_94: r_7 + r_20 <= 1
 blue_ind_94: b_7 + b_20 <= 1
 red_ind_95: r_7 + r_21 <= 1
 blue_ind_95: b_7 + b_21 <= 1
 red_ind_96: r_8 + r_32 <= 1
 blue_ind_96: b_8 + b_32 <= 1
 red_ind_97: r_8 + r_34 <= 1
 blue_ind_97: b_8 + b_34 <= 1
 red_ind_98: r_8 + r_35 <= 1
 blue_ind_98: b_8 + b_35 <= 1
 red_ind_99: r_8 + r_37 <= 1
 blue_ind_99: b_8 + b_37 <= 1
 red_ind_100: r_8 + r_15 <= 1
 blue_ind_100: b_8 + b_15 <= 1
 red_ind_101: r_8 + r_17 <= 1
 blue_ind_101: b_8 + b_17 <= 1
 red_ind_102: r_8 + r_25 <= 1
 blue_ind_102: b_8 + b_25 <= 1
 red_ind_103: r_8 + r_27 <= 1
 blue_ind_103: b_8 + b_27 <= 1
 red_ind_104: r_8 + r_28 <= 1
 blue_ind_104: b_8 + b_28 <= 1
 red_ind_105: r_8 + r_30 <= 1
 blue_ind_105: b_8 + b_30 <= 1
 red_ind_106: r_8 + r_31 <= 1
 blue_ind_106: b_8 + b_31 <= 1
 red_ind_107: r_9 + r_35 <= 1
 blue_ind_107: b_9 + b_35 <= 1
 red_ind_108: r_9 + r_14 <= 1
 blue_ind_108: b_9 + b_14 <= 1
 red_ind_109: r_9 + r_18 <= 1
 blue_ind_109: b_9 + b_18 <= 1
 red_ind_110: r_9 + r_21 <= 1
 blue_ind_110: b_9 + b_21 <= 1
 red_ind_111: r_9 + r_22 <= 1
 blue_ind_111: b_9 + b_22 <= 1
 red_ind_112: r_9 + r_25 <= 1
 blue_ind_112: b_9 + b_25 <= 1
 red_ind_113: r_9 + r_26 <= 1
 blue_ind_113: b_9 + b_26 <= 1
 red_ind_114: r_9 + r_27 <= 1
 blue_ind_114: b_9 + b_27 <= 1
 red_ind_115: r_10 + r_34 <= 1
 blue_ind_115: b_10 + b_34 <= 1
 red_ind_116: r_10 + r_39 <= 1
 blue_ind_116: b_10 + b_39 <= 1
 red_ind_117: r_10 + r_11 <= 1
 blue_ind_117: b_10 + b_11 <= 1
 red_ind_118: r_10 + r_19 <= 1
 blue_ind_118: b_10 + b_19 <= 1
 red_ind_119: r_10 + r_20 <= 1
 blue_ind_119: b_10 + b_20 <= 1
 red_ind_120: r_10 + r_26 <= 1
 blue_ind_120: b_10 + b_26 <= 1
 red_ind_121: r_10 + r_27 <= 1
 blue_ind_121: b_10 + b_27 <= 1
 red_ind_122: r_10 + r_28 <= 1
 blue_ind_122: b_10 + b_28 <= 1
 red_ind_123: r_10 + r_30 <= 1
 blue_ind_123: b_10 + b_30 <= 1
 red_ind_124: r_10 + r_31 <= 1
 blue_ind_124: b_10 + b_31 <= 1
 red_ind_125: r_11 + r_35 <= 1
 blue_ind_125: b_11 + b_35 <= 1
 red_ind_126: r_11 + r_36 <= 1
 blue_ind_126: b_11 + b_36 <= 1
 red_ind_127: r_11 + r_12 <= 1
 blue_ind_127: b_11 + b_12 <= 1
 red_ind_128: r_11 + r_13 <= 1
 blue_ind_128: b_11 + b_13 <= 1
 red_ind_129: r_11 + r_16 <= 1
 blue_ind_129: b_11 + b_16 <= 1
 red_ind_130: r_11 + r_18 <= 1
 blue_ind_130: b_11 + b_18 <= 1
 red_ind_131: r_11 + r_20 <= 1
 blue_ind_131: b_11 + b_20 <= 1
 red_ind_132: r_12 + r_33 <= 1
 blue_ind_132: b_12 + b_33 <= 1
 red_ind_133: r_12 + r_34 <= 1
 blue_ind_133: b_12 + b_34 <= 1
 red_ind_134: r_12 + r_37 <= 1
 blue_ind_134: b_12 + b_37 <= 1
 red_ind_135: r_12 + r_14 <= 1
 blue_ind_135: b_12 + b_14 <= 1
 red_ind_136: r_12 + r_15 <= 1
 blue_ind_136: b_12 + b_15 <= 1
 red_ind_137: r_12 + r_16 <= 1
 blue_ind_137: b_12 + b_16 <= 1
 red_ind_138: r_12 + r_17 <= 1
 blue_ind_138: b_12 + b_17 <= 1
 red_ind_139: r_12 + r_21 <= 1
 blue_ind_139: b_12 + b_21 <= 1
 red_ind_140: r_12 + r_23 <= 1
 blue_ind_140: b_12 + b_23 <= 1
 red_ind_141: r_12 + r_26 <= 1
 blue_ind_141: b_12 + b_26 <= 1
 red_ind_142: r_12 + r_27 <= 1
 blue_ind_142: b_12 + b_27 <= 1
 red_ind_143: r_12 + r_29 <= 1
 blue_ind_143: b_12 + b_29 <= 1
 red_ind_144: r_13 + r_36 <= 1
 blue_ind_144: b_13 + b_36 <= 1
 red_ind_145: r_13 + r_16 <= 1
 blue_ind_145: b_13 + b_16 <= 1
 red_ind_146: r_13 + r_17 <= 1
 blue_ind_146: b_13 + b_17 <= 1
 red_ind_147: r_13 + r_19 <= 1
 blue_ind_147: b_13 + b_19 <= 1
 red_ind_148: r_13 + r_22 <= 1
 blue_ind_148: b_13 + b_22 <= 1
 red_ind_149: r_13 + r_27 <= 1
 blue_ind_149: b_13 + b_27 <= 1
 red_ind_150: r_13 + r_31 <= 1
 blue_ind_150: b_13 + b_31 <= 1
 red_ind_151: r_14 + r_32 <= 1
 blue_ind_151: b_14 + b_32 <= 1
 red_ind_152: r_14 + r_33 <= 1
 blue_ind_152: b_14 + b_33 <= 1
 red_ind_153: r_14 + r_34 <= 1
 blue_ind_153: b_14 + b_34 <= 1
 red_ind_154: r_14 + r_17 <= 1
 blue_ind_154: b_14 + b_17 <= 1
 red_ind_155: r_14 + r_20 <= 1
 blue_ind_155: b_14 + b_20 <= 1
 red_ind_156: r_14 + r_23 <= 1
 blue_ind_156: b_14 + b_23 <= 1
 red_ind_157: r_14 + r_25 <= 1
 blue_ind_157: b_14 + b_25 <= 1
 red_ind_158: r_14 + r_26 <= 1
 blue_ind_158: b_14 + b_26 <= 1
 red_ind_159: r_15 + r_32 <= 1
 blue_ind_159: b_15 + b_32 <= 1
 red_ind_160: r_15 + r_33 <= 1
 blue_ind_160: b_15 + b_33 <= 1
 red_ind_161: r_15 + r_36 <= 1
 blue_ind_161: b_15 + b_36 <= 1
 red_ind_162: r_15 + r_37 <= 1
 blue_ind_162: b_15 + b_37 <= 1
 red_ind_163: r_15 + r_16 <= 1
 blue_ind_163: b_15 + b_16 <= 1
 red_ind_164: r_15 + r_19 <= 1
 blue_ind_164: b_15 + b_19 <= 1
 red_ind_165: r_15 + r_21 <= 1
 blue_ind_165: b_15 + b_21 <= 1
 red_ind_166: r_15 + r_24 <= 1
 blue_ind_166: b_15 + b_24 <= 1
 red_ind_167: r_15 + r_30 <= 1
 blue_ind_167: b_15 + b_30 <= 1
 red_ind_168: r_15 + r_31 <= 1
 blue_ind_168: b_15 + b_31 <= 1
 red_ind_169: r_16 + r_38 <= 1
 blue_ind_169: b_16 + b_38 <= 1
 red_ind_170: r_16 + r_20 <= 1
 blue_ind_170: b_16 + b_20 <= 1
 red_ind_171: r_16 + r_22 <= 1
 blue_ind_171: b_16 + b_22 <= 1
 red_ind_172: r_16 + r_25 <= 1
 blue_ind_172: b_16 + b_25 <= 1
 red_ind_173: r_16 + r_26 <= 1
 blue_ind_173: b_16 + b_26 <= 1
 red_ind_174: r_16 + r_28 <= 1
 blue_ind_174: b_16 + b_28 <= 1
 red_ind_175: r_17 + r_36 <= 1
 blue_ind_175: b_17 + b_36 <= 1
 red_ind_176: r_17 + r_39 <= 1
 blue_ind_176: b_17 + b_39 <= 1
 red_ind_177: r_17 + r_21 <= 1
 blue_ind_177: b_17 + b_21 <= 1
 red_ind_178: r_17 + r_27 <= 1
 blue_ind_178: b_17 + b_27 <= 1
 red_ind_179: r_17 + r_29 <= 1
 blue_ind_179: b_17 + b_29 <= 1
 red_ind_180: r_18 + r_33 <= 1
 blue_ind_180: b_18 + b_33 <= 1
 red_ind_181: r_18 + r_20 <= 1
 blue_ind_181: b_18 + b_20 <= 1
 red_ind_182: r_18 + r_21 <= 1
 blue_ind_182: b_18 + b_21 <= 1
 red_ind_183: r_18 + r_24 <= 1
 blue_ind_183: b_18 + b_24 <= 1
 red_ind_184: r_18 + r_27 <= 1
 blue_ind_184: b_18 + b_27 <= 1
 red_ind_185: r_19 + r_34 <= 1
 blue_ind_185: b_19 + b_34 <= 1
 red_ind_186: r_19 + r_20 <= 1
 blue_ind_186: b_19 + b_20 <= 1
 red_ind_187: r_19 + r_21 <= 1
 blue_ind_187: b_19 + b_21 <= 1
 red_ind_188: r_19 + r_22 <= 1
 blue_ind_188: b_19 + b_22 <= 1
 red_ind_189: r_19 + r_23 <= 1
 blue_ind_189: b_19 + b_23 <= 1
 red_ind_190: r_19 + r_24 <= 1
 blue_ind_190: b_19 + b_24 <= 1
 red_ind_191: r_19 + r_30 <= 1
 blue_ind_191: b_19 + b_30 <= 1
 red_ind_192: r_20 + r_22 <= 1
 blue_ind_192: b_20 + b_22 <= 1
 red_ind_193: r_20 + r_23 <= 1
 blue_ind_193: b_20 + b_23 <= 1
 red_ind_194: r_20 + r_24 <= 1
 blue_ind_194: b_20 + b_24 <= 1
 red_ind_195: r_20 + r_26 <= 1
 blue_ind_195: b_20 + b_26 <= 1
 red_ind_196: r_20 + r_28 <= 1
 blue_ind_196: b_20 + b_28 <= 1
 red_ind_197: r_20 + r_29 <= 1
 blue_ind_197: b_20 + b_29 <= 1
 red_ind_198: r_20 + r_30 <= 1
 blue_ind_198: b_20 + b_30 <= 1
 red_ind_199: r_20 + r_32 <= 1
 blue_ind_199: b_20 + b_32 <= 1
 red_ind_200: r_20 + r_33 <= 1
 blue_ind_200: b_20 + b_33 <= 1
 red_ind_201: r_20 + r_34 <= 1
 blue_ind_201: b_20 + b_34 <= 1
 red_ind_202: r_20 + r_35 <= 1
 blue_ind_202: b_20 + b_35 <= 1
 red_ind_203: r_20 + r_37 <= 1
 blue_ind_203: b_20 + b_37 <= 1
 red_ind_204: r_20 + r_38 <= 1
 blue_ind_204: b_20 + b_38 <= 1
 red_ind_205: r_21 + r_24 <= 1
 blue_ind_205: b_21 + b_24 <= 1
 red_ind_206: r_21 + r_27 <= 1
 blue_ind_206: b_21 + b_27 <= 1
 red_ind_207: r_21 + r_29 <= 1
 blue_ind_207: b_21 + b_29 <= 1
 red_ind_208: r_21 + r_30 <= 1
 blue_ind_208: b_21 + b_30 <= 1
 red_ind_209: r_21 + r_32 <= 1
 blue_ind_209: b_21 + b_32 <= 1
 red_ind_210: r_21 + r_34 <= 1
 blue_ind_210: b_21 + b_34 <= 1
 red_ind_211: r_21 + r_35 <= 1
 blue_ind_211: b_21 + b_35 <= 1
 red_ind_212: r_21 + r_36 <= 1
 blue_ind_212: b_21 + b_36 <= 1
 red_ind_213: r_21 + r_38 <= 1
 blue_ind_213: b_21 + b_38 <= 1
 red_ind_214: r_22 + r_25 <= 1
 blue_ind_214: b_22 + b_25 <= 1
 red_ind_215: r_22 + r_26 <= 1
 blue_ind_215: b_22 + b_26 <= 1
 red_ind_216: r_22 + r_27 <= 1
 blue_ind_216: b_22 + b_27 <= 1
 red_ind_217: r_22 + r_30 <= 1
 blue_ind_217: b_22 + b_30 <= 1
 red_ind_218: r_22 + r_31 <= 1
 blue_ind_218: b_22 + b_31 <= 1
 red_ind_219: r_22 + r_35 <= 1
 blue_ind_219: b_22 + b_35 <= 1
 red_ind_220: r_22 + r_36 <= 1
 blue_ind_220: b_22 + b_36 <= 1
 red_ind_221: r_22 + r_37 <= 1
 blue_ind_221: b_22 + b_37 <= 1
 red_ind_222: r_22 + r_38 <= 1
 blue_ind_222: b_22 + b_38 <= 1
 red_ind_223: r_22 + r_39 <= 1
 blue_ind_223: b_22 + b_39 <= 1
 red_ind_224: r_23 + r_33 <= 1
 blue_ind_224: b_23 + b_33 <= 1
 red_ind_225: r_23 + r_34 <= 1
 blue_ind_225: b_23 + b_34 <= 1
 red_ind_226: r_23 + r_37 <= 1
 blue_ind_226: b_23 + b_37 <= 1
 red_ind_227: r_23 + r_38 <= 1
 blue_ind_227: b_23 + b_38 <= 1
 red_ind_228: r_23 + r_24 <= 1
 blue_ind_228: b_23 + b_24 <= 1
 red_ind_229: r_23 + r_27 <= 1
 blue_ind_229: b_23 + b_27 <= 1
 red_ind_230: r_24 + r_38 <= 1
 blue_ind_230: b_24 + b_38 <= 1
 red_ind_231: r_24 + r_25 <= 1
 blue_ind_231: b_24 + b_25 <= 1
 red_ind_232: r_24 + r_27 <= 1
 blue_ind_232: b_24 + b_27 <= 1
 red_ind_233: r_24 + r_30 <= 1
 blue_ind_233: b_24 + b_30 <= 1
 red_ind_234: r_25 + r_34 <= 1
 blue_ind_234: b_25 + b_34 <= 1
 red_ind_235: r_25 + r_36 <= 1
 blue_ind_235: b_25 + b_36 <= 1
 red_ind_236: r_25 + r_27 <= 1
 blue_ind_236: b_25 + b_27 <= 1
 red_ind_237: r_25 + r_28 <= 1
 blue_ind_237: b_25 + b_28 <= 1
 red_ind_238: r_26 + r_36 <= 1
 blue_ind_238: b_26 + b_36 <= 1
 red_ind_239: r_26 + r_38 <= 1
 blue_ind_239: b_26 + b_38 <= 1
 red_ind_240: r_26 + r_27 <= 1
 blue_ind_240: b_26 + b_27 <= 1
 red_ind_241: r_26 + r_28 <= 1
 blue_ind_241: b_26 + b_28 <= 1
 red_ind_242: r_27 + r_29 <= 1
 blue_ind_242: b_27 + b_29 <= 1
 red_ind_243: r_27 + r_31 <= 1
 blue_ind_243: b_27 + b_31 <= 1
 red_ind_244: r_27 + r_32 <= 1
 blue_ind_244: b_27 + b_32 <= 1
 red_ind_245: r_27 + r_34 <= 1
 blue_ind_245: b_27 + b_34 <= 1
 red_ind_246: r_27 + r_35 <= 1
 blue_ind_246: b_27 + b_35 <= 1
 red_ind_247: r_27 + r_36 <= 1
 blue_ind_247: b_27 + b_36 <= 1
 red_ind_248: r_27 + r_39 <= 1
 blue_ind_248: b_27 + b_39 <= 1
 red_ind_249: r_28 + r_38 <= 1
 blue_ind_249: b_28 + b_38 <= 1
 red_ind_250: r_28 + r_39 <= 1
 blue_ind_250: b_28 + b_39 <= 1
 red_ind_251: r_28 + r_29 <= 1
 blue_ind_251: b_28 + b_29 <= 1
 red_ind_252: r_28 + r_31 <= 1
 blue_ind_252: b_28 + b_31 <= 1
 red_ind_253: r_29 + r_32 <= 1
 blue_ind_253: b_29 + b_32 <= 1
 red_ind_254: r_29 + r_33 <= 1
 blue_ind_254: b_29 + b_33 <= 1
 red_ind_255: r_29 + r_35 <= 1
 blue_ind_255: b_29 + b_35 <= 1
 red_ind_256: r_29 + r_37 <= 1
 blue_ind_256: b_29 + b_37 <= 1
 red_ind_257: r_29 + r_39 <= 1
 blue_ind_257: b_29 + b_39 <= 1
 red_ind_258: r_29 + r_30 <= 1
 blue_ind_258: b_29 + b_30 <= 1
 red_ind_259: r_30 + r_36 <= 1
 blue_ind_259: b_30 + b_36 <= 1
 red_ind_260: r_30 + r_39 <= 1
 blue_ind_260: b_30 + b_39 <= 1
 red_ind_261: r_31 + r_35 <= 1
 blue_ind_261: b_31 + b_35 <= 1
 red_ind_262: r_31 + r_39 <= 1
 blue_ind_262: b_31 + b_39 <= 1
 red_ind_263: r_32 + r_33 <= 1
 blue_ind_263: b_32 + b_33 <= 1
 red_ind_264: r_32 + r_35 <= 1
 blue_ind_264: b_32 + b_35 <= 1
 red_ind_265: r_33 + r_35 <= 1
 blue_ind_265: b_33 + b_35 <= 1
 red_ind_266: r_33 + r_38 <= 1
 blue_ind_266: b_33 + b_38 <= 1
 red_ind_267: r_34 + r_35 <= 1
 blue_ind_267: b_34 + b_35 <= 1
 red_ind_268: r_34 + r_36 <= 1
 blue_ind_268: b_34 + b_36 <= 1
 red_ind_269: r_34 + r_37 <= 1
 blue_ind_269: b_34 + b_37 <= 1
 red_dom_0: r_1 + r_6 + r_7 + r_9 + r_10 + r_16 + r_22 + r_25 + r_26 + r_38 + r_39 + r_0 + b_0 >= 1
 blue_dom_0: b_1 + b_6 + b_7 + b_9 + b_10 + b_16 + b_22 + b_25 + b_26 + b_38 + b_39 + r_0 + b_0 >= 1
 red_dom_1: r_0 + r_2 + r_6 + r_18 + r_24 + r_27 + r_28 + r_31 + r_34 + r_35 + r_38 + r_1 + b_1 >= 1
 blue_dom_1: b_0 + b_2 + b_6 + b_18 + b_24 + b_27 + b_28 + b_31 + b_34 + b_35 + b_38 + r_1 + b_1 >= 1
 red_dom_2: r_1 + r_3 + r_5 + r_10 + r_11 + r_13 + r_14 + r_17 + r_18 + r_20 + r_34 + r_35 + r_39 + r_2 + b_2 >= 1
 blue_dom_2: b_1 + b_3 + b_5 + b_10 + b_11 + b_13 + b_14 + b_17 + b_18 + b_20 + b_34 + b_35 + b_39 + r_2 + b_2 >= 1
 red_dom_3: r_2 + r_6 + r_9 + r_16 + r_17 + r_20 + r_23 + r_25 + r_28 + r_31 + r_34 + r_35 + r_37 + r_38 + r_3 + b_3 >= 1
 blue_dom_3: b_2 + b_6 + b_9 + b_16 + b_17 + b_20 + b_23 + b_25 + b_28 + b_31 + b_34 + b_35 + b_37 + b_38 + r_3 + b_3 >= 1
 red_dom_4: r_6 + r_7 + r_8 + r_12 + r_13 + r_17 + r_18 + r_20 + r_23 + r_24 + r_28 + r_29 + r_30 + r_32 + r_33 + r_38 + r_39 + r_4 + b_4 >= 1
 blue_dom_4: b_6 + b_7 + b_8 + b_12 + b_13 + b_17 + b_18 + b_20 + b_23 + b_24 + b_28 + b_29 + b_30 + b_32 + b_33 + b_38 + b_39 + r_4 + b_4 >= 1
 red_dom_5: r_2 + r_12 + r_17 + r_18 + r_19 + r_20 + r_22 + r_24 + r_31 + r_33 + r_34 + r_5 + b_5 >= 1
 blue_dom_5: b_2 + b_12 + b_17 + b_18 + b_19 + b_20 + b_22 + b_24 + b_31 + b_33 + b_34 + r_5 + b_5 >= 1
 red_dom_6: r_0 + r_1 + r_3 + r_4 + r_7 + r_8 + r_13 + r_16 + r_21 + r_24 + r_25 + r_26 + r_31 + r_32 + r_33 + r_34 + r_35 + r_38 + r_6 + b_6 >= 1
 blue_dom_6: b_0 + b_1 + b_3 + b_4 + b_7 + b_8 + b_13 + b_16 + b_21 + b_24 + b_25 + b_26 + b_31 + b_32 + b_33 + b_34 + b_35 + b_38 + r_6 + b_6 >= 1
 red_dom_7: r_0 + r_4 + r_6 + r_8 + r_9 + r_14 + r_15 + r_16 + r_20 + r_21 + r_35 + r_38 + r_7 + b_7 >= 1
 blue_dom_7: b_0 + b_4 + b_6 + b_8 + b_9 + b_14 + b_15 + b_16 + b_20 + b_21 + b_35 + b_38 + r_7 + b_7 >= 1
 red_dom_8: r_4 + r_6 + r_7 + r_15 + r_17 + r_25 + r_27 + r_28 + r_30 + r_31 + r_32 + r_34 + r_35 + r_37 + r_8 + b_8 >= 1
 blue_dom_8: b_4 + b_6 + b_7 + b_15 + b_17 + b_25 + b_27 + b_28 + b_30 + b_31 + b_32 + b_34 + b_35 + b_37 + r_8 + b_8 >= 1
 red_dom_9: r_0 + r_3 + r_7 + r_14 + r_18 + r_21 + r_22 + r_25 + r_26 + r_27 + r_35 + r_9 + b_9 >= 1
 blue_dom_9: b_0 + b_3 + b_7 + b_14 + b_18 + b_21 + b_22 + b_25 + b_26 + b_27 + b_35 + r_9 + b_9 >= 1
 red_dom_10: r_0 + r_2 + r_11 + r_19 + r_20 + r_26 + r_27 + r_28 + r_30 + r_31 + r_34 + r_39 + r_10 + b_10 >= 1
 blue_dom_10: b_0 + b_2 + b_11 + b_19 + b_20 + b_26 + b_27 + b_28 + b_30 + b_31 + b_34 + b_39 + r_10 + b_10 >= 1
 red_dom_11: r_2 + r_10 + r_12 + r_13 + r_16 + r_18 + r_20 + r_35 + r_36 + r_11 + b_11 >= 1
 blue_dom_11: b_2 + b_10 + b_12 + b_13 + b_16 + b_18 + b_20 + b_35 + b_36 + r_11 + b_11 >= 1
 red_dom_12: r_4 + r_5 + r_11 + r_14 + r_15 + r_16 + r_17 + r_21 + r_23 + r_26 + r_27 + r_29 + r_33 + r_34 + r_37 + r_12 + b_12 >= 1
 blue_dom_12: b_4 + b_5 + b_11 + b_14 + b_15 + b_16 + b_17 + b_21 + b_23 + b_26 + b_27 + b_29 + b_33 + b_34 + b_37 + r_12 + b_12 >= 1
 red_dom_13: r_2 + r_4 + r_6 + r_11 + r_16 + r_17 + r_19 + r_22 + r_27 + r_31 + r_36 + r_13 + b_13 >= 1
 blue_dom_13: b_2 + b_4 + b_6 + b_11 + b_16 + b_17 + b_19 + b_22 + b_27 + b_31 + b_36 + r_13 + b_13 >= 1
 red_dom_14: r_2 + r_7 + r_9 + r_12 + r_17 + r_20 + r_23 + r_25 + r_26 + r_32 + r_33 + r_34 + r_14 + b_14 >= 1
 blue_dom_14: b_2 + b_7 + b_9 + b_12 + b_17 + b_20 + b_23 + b_25 + b_26 + b_32 + b_33 + b_34 + r_14 + b_14 >= 1
 red_dom_15: r_7 + r_8 + r_12 + r_16 + r_19 + r_21 + r_24 + r_30 + r_31 + r_32 + r_33 + r_36 + r_37 + r_15 + b_15 >= 1
 blue_dom_15: b_7 + b_8 + b_12 + b_16 + b_19 + b_21 + b_24 + b_30 + b_31 + b_32 + b_33 + b_36 + b_37 + r_15 + b_15 >= 1
 red_dom_16: r_0 + r_3 + r_6 + r_7 + r_11 + r_12 + r_13 + r_15 + r_20 + r_22 + r_25 + r_26 + r_28 + r_38 + r_16 + b_16 >= 1
 blue_dom_16: b_0 + b_3 + b_6 + b_7 + b_11 + b_12 + b_13 + b_15 + b_20 + b_22 + b_25 + b_26 + b_28 + b_38 + r_16 + b_16 >= 1
 red_dom_17: r_2 + r_3 + r_4 + r_5 + r_8 + r_12 + r_13 + r_14 + r_21 + r_27 + r_29 + r_36 + r_39 + r_17 + b_17 >= 1
 blue_dom_17: b_2 + b_3 + b_4 + b_5 + b_8 + b_12 + b_13 + b_14 + b_21 + b_27 + b_29 + b_36 + b_39 + r_17 + b_17 >= 1
 red_dom_18: r_1 + r_2 + r_4 + r_5 + r_9 + r_11 + r_20 + r_21 + r_24 + r_27 + r_33 + r_18 + b_18 >= 1
 blue_dom_18: b_1 + b_2 + b_4 + b_5 + b_9 + b_11 + b_20 + b_21 + b_24 + b_27 + b_33 + r_18 + b_18 >= 1
 red_dom_19: r_5 + r_10 + r_13 + r_15 + r_20 + r_21 + r_22 + r_23 + r_24 + r_30 + r_34 + r_19 + b_19 >= 1
 blue_dom_19: b_5 + b_10 + b_13 + b_15 + b_20 + b_21 + b_22 + b_23 + b_24 + b_30 + b_34 + r_19 + b_19 >= 1
 red_dom_20: r_2 + r_3 + r_4 + r_5 + r_7 + r_10 + r_11 + r_14 + r_16 + r_18 + r_19 + r_22 + r_23 + r_24 + r_26 + r_28 + r_29 + r_30 + r_32 + r_33 + r_34 + r_35 + r_37 + r_38 + r_20 + b_20 >= 1
 blue_dom_20: b_2 + b_3 + b_4 + b_5 + b_7 + b_10 + b_11 + b_14 + b_16 + b_18 + b_19 + b_22 + b_23 + b_24 + b_26 + b_28 + b_29 + b_30 + b_32 + b_33 + b_34 + b_35 + b_37 + b_38 + r_20 + b_20 >= 1
 red_dom_21: r_6 + r_7 + r_9 + r_12 + r_15 + r_17 + r_18 + r_19 + r_24 + r_27 + r_29 + r_30 + r_32 + r_34 + r_35 + r_36 + r_38 + r_21 + b_21 >= 1
 blue_dom_21: b_6 + b_7 + b_9 + b_12 + b_15 + b_17 + b_18 + b_19 + b_24 + b_27 + b_29 + b_30 + b_32 + b_34 + b_35 + b_36 + b_38 + r_21 + b_21 >= 1
 red_dom_22: r_0 + r_5 + r_9 + r_13 + r_16 + r_19 + r_20 + r_25 + r_26 + r_27 + r_30 + r_31 + r_35 + r_36 + r_37 + r_38 + r_39 + r_22 + b_22 >= 1
 blue_dom_22: b_0 + b_5 + b_9 + b_13 + b_16 + b_19 + b_20 + b_25 + b_26 + b_27 + b_30 + b_31 + b_35 + b_36 + b_37 + b_38 + b_39 + r_22 + b_22 >= 1
 red_dom_23: r_3 + r_4 + r_12 + r_14 + r_19 + r_20 + r_24 + r_27 + r_33 + r_34 + r_37 + r_38 + r_23 + b_23 >= 1
 blue_dom_23: b_3 + b_4 + b_12 + b_14 + b_19 + b_20 + b_24 + b_27 + b_33 + b_34 + b_37 + b_38 + r_23 + b_23 >= 1
 red_dom_24: r_1 + r_4 + r_5 + r_6 + r_15 + r_18 + r_19 + r_20 + r_21 + r_23 + r_25 + r_27 + r_30 + r_38 + r_24 + b_24 >= 1
 blue_dom_24: b_1 + b_4 + b_5 + b_6 + b_15 + b_18 + b_19 + b_20 + b_21 + b_23 + b_25 + b_27 + b_30 + b_38 + r_24 + b_24 >= 1
 red_dom_25: r_0 + r_3 + r_6 + r_8 + r_9 + r_14 + r_16 + r_22 + r_24 + r_27 + r_28 + r_34 + r_36 + r_25 + b_25 >= 1
 blue_dom_25: b_0 + b_3 + b_6 + b_8 + b_9 + b_14 + b_16 + b_22 + b_24 + b_27 + b_28 + b_34 + b_36 + r_25 + b_25 >= 1
 red_dom_26: r_0 + r_6 + r_9 + r_10 + r_12 + r_14 + r_16 + r_20 + r_22 + r_27 + r_28 + r_36 + r_38 + r_26 + b_26 >= 1
 blue_dom_26: b_0 + b_6 + b_9 + b_10 + b_12 + b_14 + b_16 + b_20 + b_22 + b_27 + b_28 + b_36 + b_38 + r_26 + b_26 >= 1
 red_dom_27: r_1 + r_8 + r_9 + r_10 + r_12 + r_13 + r_17 + r_18 + r_21 + r_22 + r_23 + r_24 + r_25 + r_26 + r_29 + r_31 + r_32 + r_34 + r_35 + r_36 + r_39 + r_27 + b_27 >= 1
 blue_dom_27: b_1 + b_8 + b_9 + b_10 + b_12 + b_13 + b_17 + b_18 + b_21 + b_22 + b_23 + b_24 + b_25 + b_26 + b_29 + b_31 + b_32 + b_34 + b_35 + b_36 + b_39 + r_27 + b_27 >= 1
 red_dom_28: r_1 + r_3 + r_4 + r_8 + r_10 + r_16 + r_20 + r_25 + r_26 + r_29 + r_31 + r_38 + r_39 + r_28 + b_28 >= 1
 blue_dom_28: b_1 + b_3 + b_4 + b_8 + b_10 + b_16 + b_20 + b_25 + b_26 + b_29 + b_31 + b_38 + b_39 + r_28 + b_28 >= 1
 red_dom_29: r_4 + r_12 + r_17 + r_20 + r_21 + r_27 + r_28 + r_30 + r_32 + r_33 + r_35 + r_37 + r_39 + r_29 + b_29 >= 1
 blue_dom_29: b_4 + b_12 + b_17 + b_20 + b_21 + b_27 + b_28 + b_30 + b_32 + b_33 + b_35 + b_37 + b_39 + r_29 + b_29 >= 1
 red_dom_30: r_4 + r_8 + r_10 + r_15 + r_19 + r_20 + r_21 + r_22 + r_24 + r_29 + r_36 + r_39 + r_30 + b_30 >= 1
 blue_dom_30: b_4 + b_8 + b_10 + b_15 + b_19 + b_20 + b_21 + b_22 + b_24 + b_29 + b_36 + b_39 + r_30 + b_30 >= 1
 red_dom_31: r_1 + r_3 + r_5 + r_6 + r_8 + r_10 + r_13 + r_15 + r_22 + r_27 + r_28 + r_35 + r_39 + r_31 + b_31 >= 1
 blue_dom_31: b_1 + b_3 + b_5 + b_6 + b_8 + b_10 + b_13 + b_15 + b_22 + b_27 + b_28 + b_35 + b_39 + r_31 + b_31 >= 1
 red_dom_32: r_4 + r_6 + r_8 + r_14 + r_15 + r_20 + r_21 + r_27 + r_29 + r_33 + r_35 + r_32 + b_32 >= 1
 blue_dom_32: b_4 + b_6 + b_8 + b_14 + b_15 + b_20 + b_21 + b_27 + b_29 + b_33 + b_35 + r_32 + b_32 >= 1
 red_dom_33: r_4 + r_5 + r_6 + r_12 + r_14 + r_15 + r_18 + r_20 + r_23 + r_29 + r_32 + r_35 + r_38 + r_33 + b_33 >= 1
 blue_dom_33: b_4 + b_5 + b_6 + b_12 + b_14 + b_15 + b_18 + b_20 + b_23 + b_29 + b_32 + b_35 + b_38 + r_33 + b_33 >= 1
 red_dom_34: r_1 + r_2 + r_3 + r_5 + r_6 + r_8 + r_10 + r_12 + r_14 + r_19 + r_20 + r_21 + r_23 + r_25 + r_27 + r_35 + r_36 + r_37 + r_34 + b_34 >= 1
 blue_dom_34: b_1 + b_2 + b_3 + b_5 + b_6 + b_8 + b_10 + b_12 + b_14 + b_19 + b_20 + b_21 + b_23 + b_25 + b_27 + b_35 + b_36 + b_37 + r_34 + b_34 >= 1
 red_dom_35: r_1 + r_2 + r_3 + r_6 + r_7 + r_8 + r_9 + r_11 + r_20 + r_21 + r_22 + r_27 + r_29 + r_31 + r_32 + r_33 + r_34 + r_35 + b_35 >= 1
 blue_dom_35: b_1 + b_2 + b_3 + b_6 + b_7 + b_8 + b_9 + b_11 + b_20 + b_21 + b_22 + b_27 + b_29 + b_31 + b_32 + b_33 + b_34 + r_35 + b_35 >= 1
 red_dom_36: r_11 + r_13 + r_15 + r_17 + r_21 + r_22 + r_25 + r_26 + r_27 + r_30 + r_34 + r_36 + b_36 >= 1
 blue_dom_36: b_11 + b_13 + b_15 + b_17 + b_21 + b_22 + b_25 + b_26 + b_27 + b_30 + b_34 + r_36 + b_36 >= 1
 red_dom_37: r_3 + r_8 + r_12 + r_15 + r_20 + r_22 + r_23 + r_29 + r_34 + r_37 + b_37 >= 1
 blue_dom_37: b_3 + b_8 + b_12 + b_15 + b_20 + b_22 + b_23 + b_29 + b_34 + r_37 + b_37 >= 1
 red_dom_38: r_0 + r_1 + r_3 + r_4 + r_6 + r_7 + r_16 + r_20 + r_21 + r_22 + r_23 + r_24 + r_26 + r_28 + r_33 + r_38 + b_38 >= 1
 blue_dom_38: b_0 + b_1 + b_3 + b_4 + b_6 + b_7 + b_16 + b_20 + b_21 + b_22 + b_23 + b_24 + b_26 + b_28 + b_33 + r_38 + b_38 >= 1
 red_dom_39: r_0 + r_2 + r_4 + r_10 + r_17 + r_22 + r_27 + r_28 + r_29 + r_30 + r_31 + r_39 + b_39 >= 1
 blue_dom_39: b_0 + b_2 + b_4 + b_10 + b_17 + b_22 + b_27 + b_28 + b_29 + b_30 + b_31 + r_39 + b_39 >= 1
Binary
 r_0
 r_1
 r_2
 r_3
 r_4
 r_5
 r_6
 r_7
 r_8
 r_9
 r_10
 r_11
 r_12
 r_13
 r_14
 r_15
 r_16
 r_17
 r_18
 r_19
 r_20
 r_21
 r_22
 r_23
 r_24
 r_25
 r_26
 r_27
 r_28
 r_29
 r_30
 r_31
 r_32
 r_33
 r_34
 r_35
 r_36
 r_37
 r_38
 r_39
 b_0
 b_1
 b_2
 b_3
 b_4
 b_5
 b_6
 b_7
 b_8
 b_9
 b_10
 b_11
 b_12
 b_13
 b_14
 b_15
 b_16
 b_17
 b_18
 b_19
 b_20
 b_21
 b_22
 b_23
 b_24
 b_25
 b_26
 b_27
 b_28
 b_29
 b_30
 b_31
 b_32
 b_33
 b_34
 b_35
 b_36
 b_37
 b_38
 b_39
End
