computational_data/solutions/ER_n40_p035_s3.sol
Optimal - objective value 7.00000000
      4 r_4                         1                       1
     16 r_16                        1                       1
     34 r_34                        1                       1
     49 b_9                         1                       1
     57 b_17                        1                       1
     60 b_20                        1                       1
     71 b_31                        1                       1
